
Gurobi 5.6.3 (linux64) logging started Mon Jul 28 20:08:52 2014


Gurobi 5.6.3 (linux64) logging started Mon Jul 28 20:11:14 2014


Gurobi 5.6.3 (linux64) logging started Mon Jul 28 20:12:10 2014


Gurobi 5.6.3 (linux64) logging started Tue Jul 29 10:29:18 2014


Gurobi 5.6.3 (linux64) logging started Tue Jul 29 10:30:26 2014


Gurobi 5.6.3 (linux64) logging started Tue Jul 29 10:30:46 2014


Gurobi 5.6.3 (linux64) logging started Tue Jul 29 10:32:05 2014


Gurobi 5.6.3 (linux64) logging started Tue Jul 29 10:32:28 2014


Gurobi 5.6.3 (linux64) logging started Tue Jul 29 10:35:02 2014


Gurobi 5.6.3 (linux64) logging started Tue Jul 29 10:39:43 2014


Gurobi 5.6.3 (linux64) logging started Tue Jul 29 10:39:59 2014


Gurobi 5.6.3 (linux64) logging started Tue Jul 29 10:49:40 2014


Gurobi 5.6.3 (linux64) logging started Tue Jul 29 10:50:04 2014


Gurobi 5.6.3 (linux64) logging started Tue Jul 29 10:50:27 2014


Gurobi 5.6.3 (linux64) logging started Tue Jul 29 10:52:12 2014


Gurobi 5.6.3 (linux64) logging started Tue Jul 29 10:52:49 2014


Gurobi 5.6.3 (linux64) logging started Tue Jul 29 11:02:14 2014


Gurobi 5.6.3 (linux64) logging started Tue Jul 29 11:03:37 2014


Gurobi 5.6.3 (linux64) logging started Tue Jul 29 11:03:53 2014


Gurobi 5.6.3 (linux64) logging started Tue Jul 29 11:04:12 2014


Gurobi 5.6.3 (linux64) logging started Tue Jul 29 11:04:50 2014


Gurobi 5.6.3 (linux64) logging started Tue Jul 29 11:05:48 2014


Gurobi 5.6.3 (linux64) logging started Tue Jul 29 11:06:02 2014


Gurobi 5.6.3 (linux64) logging started Tue Jul 29 11:07:53 2014


Gurobi 5.6.3 (linux64) logging started Tue Jul 29 11:24:40 2014


Gurobi 5.6.3 (linux64) logging started Tue Jul 29 11:25:13 2014


Gurobi 5.6.3 (linux64) logging started Tue Jul 29 11:26:02 2014


Gurobi 5.6.3 (linux64) logging started Tue Jul 29 11:27:39 2014


Gurobi 5.6.3 (linux64) logging started Tue Jul 29 11:28:11 2014


Gurobi 5.6.3 (linux64) logging started Tue Jul 29 11:28:24 2014


Gurobi 5.6.3 (linux64) logging started Tue Jul 29 11:29:13 2014


Gurobi 5.6.3 (linux64) logging started Tue Jul 29 11:33:00 2014


Gurobi 5.6.3 (linux64) logging started Tue Jul 29 11:36:19 2014


Gurobi 5.6.3 (linux64) logging started Tue Jul 29 11:38:13 2014


Gurobi 5.6.3 (linux64) logging started Tue Jul 29 11:40:37 2014


Gurobi 5.6.3 (linux64) logging started Tue Jul 29 11:48:00 2014


Gurobi 5.6.3 (linux64) logging started Tue Jul 29 12:15:37 2014


Gurobi 5.6.3 (linux64) logging started Tue Jul 29 12:20:13 2014


Gurobi 5.6.3 (linux64) logging started Tue Jul 29 12:21:49 2014


Gurobi 5.6.3 (linux64) logging started Tue Jul 29 12:23:47 2014


Gurobi 5.6.3 (linux64) logging started Tue Jul 29 12:26:26 2014


Gurobi 5.6.3 (linux64) logging started Tue Jul 29 12:26:49 2014


Gurobi 5.6.3 (linux64) logging started Tue Jul 29 12:28:44 2014


Gurobi 5.6.3 (linux64) logging started Tue Jul 29 12:30:22 2014


Gurobi 5.6.3 (linux64) logging started Tue Jul 29 12:34:31 2014


Gurobi 5.6.3 (linux64) logging started Tue Jul 29 12:40:51 2014


Gurobi 5.6.3 (linux64) logging started Wed Jul 30 11:13:19 2014


Gurobi 5.6.3 (linux64) logging started Wed Jul 30 11:25:20 2014


Gurobi 5.6.3 (linux64) logging started Wed Jul 30 11:37:44 2014


Gurobi 5.6.3 (linux64) logging started Wed Jul 30 11:38:55 2014


Gurobi 5.6.3 (linux64) logging started Wed Jul 30 11:57:48 2014


Gurobi 5.6.3 (linux64) logging started Wed Jul 30 11:58:11 2014


Gurobi 5.6.3 (linux64) logging started Wed Jul 30 11:59:16 2014


Gurobi 5.6.3 (linux64) logging started Wed Jul 30 11:59:48 2014


Gurobi 5.6.3 (linux64) logging started Wed Jul 30 13:27:45 2014


Gurobi 5.6.3 (linux64) logging started Wed Jul 30 13:28:35 2014


Gurobi 5.6.3 (linux64) logging started Wed Jul 30 13:40:16 2014


Gurobi 5.6.3 (linux64) logging started Wed Jul 30 13:41:40 2014


Gurobi 5.6.3 (linux64) logging started Wed Jul 30 13:43:53 2014


Gurobi 5.6.3 (linux64) logging started Wed Jul 30 15:37:27 2014


Gurobi 5.6.3 (linux64) logging started Wed Jul 30 15:38:03 2014


Gurobi 5.6.3 (linux64) logging started Wed Jul 30 15:46:29 2014


Gurobi 5.6.3 (linux64) logging started Wed Jul 30 15:47:34 2014


Gurobi 5.6.3 (linux64) logging started Wed Jul 30 15:52:50 2014


Gurobi 5.6.3 (linux64) logging started Wed Jul 30 15:53:47 2014


Gurobi 5.6.3 (linux64) logging started Wed Jul 30 15:55:26 2014


Gurobi 5.6.3 (linux64) logging started Wed Jul 30 15:57:21 2014


Gurobi 5.6.3 (linux64) logging started Wed Jul 30 15:58:49 2014


Gurobi 5.6.3 (linux64) logging started Wed Jul 30 16:02:45 2014


Gurobi 5.6.3 (linux64) logging started Wed Jul 30 16:06:51 2014


Gurobi 5.6.3 (linux64) logging started Wed Jul 30 16:07:58 2014


Gurobi 5.6.3 (linux64) logging started Wed Jul 30 16:22:52 2014


Gurobi 5.6.3 (linux64) logging started Wed Jul 30 18:12:04 2014


Gurobi 5.6.3 (linux64) logging started Wed Jul 30 18:12:51 2014


Gurobi 5.6.3 (linux64) logging started Wed Jul 30 18:17:13 2014


Gurobi 5.6.3 (linux64) logging started Wed Jul 30 19:08:04 2014


Gurobi 5.6.3 (linux64) logging started Thu Jul 31 11:54:35 2014


Gurobi 5.6.3 (linux64) logging started Thu Jul 31 11:55:42 2014


Gurobi 5.6.3 (linux64) logging started Thu Jul 31 11:57:55 2014


Gurobi 5.6.3 (linux64) logging started Thu Jul 31 11:58:43 2014


Gurobi 5.6.3 (linux64) logging started Thu Jul 31 11:59:45 2014


Gurobi 5.6.3 (linux64) logging started Thu Jul 31 12:00:58 2014


Gurobi 5.6.3 (linux64) logging started Thu Jul 31 12:02:25 2014


Gurobi 5.6.3 (linux64) logging started Thu Jul 31 12:05:53 2014


Gurobi 5.6.3 (linux64) logging started Thu Jul 31 12:09:48 2014


Gurobi 5.6.3 (linux64) logging started Thu Jul 31 12:10:24 2014


Gurobi 5.6.3 (linux64) logging started Thu Jul 31 12:10:58 2014


Gurobi 5.6.3 (linux64) logging started Thu Jul 31 12:11:10 2014


Gurobi 5.6.3 (linux64) logging started Thu Jul 31 12:11:30 2014


Gurobi 5.6.3 (linux64) logging started Thu Jul 31 12:12:13 2014


Gurobi 5.6.3 (linux64) logging started Thu Jul 31 12:13:38 2014


Gurobi 5.6.3 (linux64) logging started Thu Jul 31 12:27:49 2014


Gurobi 5.6.3 (linux64) logging started Thu Jul 31 12:28:26 2014


Gurobi 5.6.3 (linux64) logging started Thu Jul 31 12:30:02 2014


Gurobi 5.6.3 (linux64) logging started Thu Jul 31 12:31:17 2014


Gurobi 5.6.3 (linux64) logging started Thu Jul 31 12:34:29 2014


Gurobi 5.6.3 (linux64) logging started Thu Jul 31 12:34:58 2014


Gurobi 5.6.3 (linux64) logging started Thu Jul 31 12:35:56 2014


Gurobi 5.6.3 (linux64) logging started Thu Jul 31 12:36:59 2014


Gurobi 5.6.3 (linux64) logging started Thu Jul 31 12:37:47 2014


Gurobi 5.6.3 (linux64) logging started Thu Jul 31 12:38:11 2014


Gurobi 5.6.3 (linux64) logging started Thu Jul 31 12:38:37 2014


Gurobi 5.6.3 (linux64) logging started Thu Jul 31 12:39:22 2014


Gurobi 5.6.3 (linux64) logging started Thu Jul 31 12:39:47 2014


Gurobi 5.6.3 (linux64) logging started Thu Jul 31 12:40:13 2014


Gurobi 5.6.3 (linux64) logging started Thu Jul 31 12:40:35 2014


Gurobi 5.6.3 (linux64) logging started Thu Jul 31 12:41:15 2014


Gurobi 5.6.3 (linux64) logging started Thu Jul 31 12:42:00 2014


Gurobi 5.6.3 (linux64) logging started Thu Jul 31 12:42:29 2014


Gurobi 5.6.3 (linux64) logging started Thu Jul 31 12:43:13 2014


Gurobi 5.6.3 (linux64) logging started Thu Jul 31 12:44:00 2014


Gurobi 5.6.3 (linux64) logging started Thu Jul 31 12:44:17 2014


Gurobi 5.6.3 (linux64) logging started Thu Jul 31 12:45:03 2014


Gurobi 5.6.3 (linux64) logging started Thu Jul 31 12:45:38 2014


Gurobi 5.6.3 (linux64) logging started Thu Jul 31 12:51:33 2014


Gurobi 5.6.3 (linux64) logging started Thu Jul 31 12:54:19 2014


Gurobi 5.6.3 (linux64) logging started Thu Jul 31 12:56:52 2014


Gurobi 5.6.3 (linux64) logging started Thu Jul 31 12:58:51 2014


Gurobi 5.6.3 (linux64) logging started Thu Jul 31 13:02:09 2014


Gurobi 5.6.3 (linux64) logging started Thu Jul 31 13:11:22 2014


Gurobi 5.6.3 (linux64) logging started Thu Jul 31 13:14:04 2014


Gurobi 5.6.3 (linux64) logging started Thu Jul 31 13:37:37 2014


Gurobi 5.6.3 (linux64) logging started Thu Jul 31 13:39:00 2014


Gurobi 5.6.3 (linux64) logging started Thu Jul 31 13:39:13 2014


Gurobi 5.6.3 (linux64) logging started Thu Jul 31 13:39:31 2014


Gurobi 5.6.3 (linux64) logging started Thu Jul 31 13:41:02 2014


Gurobi 5.6.3 (linux64) logging started Thu Jul 31 13:41:23 2014


Gurobi 5.6.3 (linux64) logging started Thu Jul 31 13:41:40 2014


Gurobi 5.6.3 (linux64) logging started Thu Jul 31 13:41:49 2014


Gurobi 5.6.3 (linux64) logging started Thu Jul 31 13:42:05 2014


Gurobi 5.6.3 (linux64) logging started Thu Jul 31 13:42:45 2014


Gurobi 5.6.3 (linux64) logging started Thu Jul 31 13:42:49 2014


Gurobi 5.6.3 (linux64) logging started Thu Jul 31 14:22:50 2014


Gurobi 5.6.3 (linux64) logging started Thu Jul 31 14:23:07 2014


Gurobi 5.6.3 (linux64) logging started Thu Jul 31 14:23:30 2014


Gurobi 5.6.3 (linux64) logging started Thu Jul 31 14:23:44 2014


Gurobi 5.6.3 (linux64) logging started Thu Jul 31 14:23:52 2014


Gurobi 5.6.3 (linux64) logging started Thu Jul 31 14:24:04 2014


Gurobi 5.6.3 (linux64) logging started Thu Jul 31 14:24:18 2014


Gurobi 5.6.3 (linux64) logging started Thu Jul 31 14:24:33 2014


Gurobi 5.6.3 (linux64) logging started Thu Jul 31 14:24:44 2014


Gurobi 5.6.3 (linux64) logging started Thu Jul 31 14:24:58 2014


Gurobi 5.6.3 (linux64) logging started Thu Jul 31 14:46:47 2014


Gurobi 5.6.3 (linux64) logging started Thu Jul 31 14:47:25 2014


Gurobi 5.6.3 (linux64) logging started Thu Jul 31 14:47:31 2014


Gurobi 5.6.3 (linux64) logging started Thu Jul 31 14:47:55 2014


Gurobi 5.6.3 (linux64) logging started Thu Jul 31 14:48:00 2014


Gurobi 5.6.3 (linux64) logging started Thu Jul 31 14:48:11 2014


Gurobi 5.6.3 (linux64) logging started Thu Jul 31 15:38:18 2014


Gurobi 5.6.3 (linux64) logging started Thu Jul 31 15:40:58 2014


Gurobi 5.6.3 (linux64) logging started Thu Jul 31 15:45:46 2014


Gurobi 5.6.3 (linux64) logging started Thu Jul 31 15:48:59 2014


Gurobi 5.6.3 (linux64) logging started Thu Jul 31 15:54:08 2014


Gurobi 5.6.3 (linux64) logging started Thu Jul 31 15:54:36 2014


Gurobi 5.6.3 (linux64) logging started Thu Jul 31 15:54:58 2014


Gurobi 5.6.3 (linux64) logging started Thu Jul 31 15:55:22 2014


Gurobi 5.6.3 (linux64) logging started Thu Jul 31 15:55:38 2014


Gurobi 5.6.3 (linux64) logging started Thu Jul 31 15:56:27 2014


Gurobi 5.6.3 (linux64) logging started Thu Jul 31 15:56:48 2014


Gurobi 5.6.3 (linux64) logging started Thu Jul 31 15:58:27 2014


Gurobi 5.6.3 (linux64) logging started Thu Jul 31 15:58:52 2014


Gurobi 5.6.3 (linux64) logging started Thu Jul 31 15:59:51 2014


Gurobi 5.6.3 (linux64) logging started Thu Jul 31 16:02:08 2014


Gurobi 5.6.3 (linux64) logging started Thu Jul 31 16:37:51 2014


Gurobi 5.6.3 (linux64) logging started Thu Jul 31 16:38:15 2014


Gurobi 5.6.3 (linux64) logging started Thu Jul 31 16:41:42 2014


Gurobi 5.6.3 (linux64) logging started Thu Jul 31 16:42:24 2014


Gurobi 5.6.3 (linux64) logging started Thu Jul 31 16:42:59 2014


Gurobi 5.6.3 (linux64) logging started Thu Jul 31 16:45:45 2014


Gurobi 5.6.3 (linux64) logging started Thu Jul 31 16:49:20 2014


Gurobi 5.6.3 (linux64) logging started Thu Jul 31 16:50:50 2014


Gurobi 5.6.3 (linux64) logging started Thu Jul 31 16:57:13 2014


Gurobi 5.6.3 (linux64) logging started Thu Jul 31 18:08:47 2014


Gurobi 5.6.3 (linux64) logging started Thu Jul 31 18:15:42 2014


Gurobi 5.6.3 (linux64) logging started Thu Jul 31 20:14:56 2014


Gurobi 5.6.3 (linux64) logging started Thu Jul 31 20:15:26 2014


Gurobi 5.6.3 (linux64) logging started Thu Jul 31 20:16:28 2014


Gurobi 5.6.3 (linux64) logging started Thu Jul 31 20:19:54 2014


Gurobi 5.6.3 (linux64) logging started Thu Jul 31 20:24:33 2014


Gurobi 5.6.3 (linux64) logging started Thu Jul 31 20:29:35 2014


Gurobi 5.6.3 (linux64) logging started Thu Jul 31 20:32:31 2014


Gurobi 5.6.3 (linux64) logging started Thu Jul 31 20:35:32 2014


Gurobi 5.6.3 (linux64) logging started Thu Jul 31 20:38:19 2014


Gurobi 5.6.3 (linux64) logging started Fri Aug  1 11:13:06 2014


Gurobi 5.6.3 (linux64) logging started Fri Aug  1 11:14:09 2014


Gurobi 5.6.3 (linux64) logging started Fri Aug  1 11:16:43 2014


Gurobi 5.6.3 (linux64) logging started Fri Aug  1 11:22:01 2014


Gurobi 5.6.3 (linux64) logging started Fri Aug  1 11:24:28 2014


Gurobi 5.6.3 (linux64) logging started Fri Aug  1 11:29:30 2014


Gurobi 5.6.3 (linux64) logging started Fri Aug  1 11:36:48 2014


Gurobi 5.6.3 (linux64) logging started Fri Aug  1 11:49:51 2014


Gurobi 5.6.3 (linux64) logging started Fri Aug  1 11:50:14 2014


Gurobi 5.6.3 (linux64) logging started Fri Aug  1 11:51:50 2014


Gurobi 5.6.3 (linux64) logging started Fri Aug  1 11:52:24 2014


Gurobi 5.6.3 (linux64) logging started Fri Aug  1 11:52:53 2014


Gurobi 5.6.3 (linux64) logging started Fri Aug  1 11:54:56 2014


Gurobi 5.6.3 (linux64) logging started Fri Aug  1 11:55:23 2014


Gurobi 5.6.3 (linux64) logging started Fri Aug  1 12:01:47 2014


Gurobi 5.6.3 (linux64) logging started Fri Aug  1 12:03:47 2014


Gurobi 5.6.3 (linux64) logging started Fri Aug  1 12:11:48 2014


Gurobi 5.6.3 (linux64) logging started Fri Aug  1 12:13:38 2014


Gurobi 5.6.3 (linux64) logging started Fri Aug  1 15:48:48 2014


Gurobi 5.6.3 (linux64) logging started Fri Aug  1 19:41:34 2014


Gurobi 5.6.3 (linux64) logging started Fri Aug  1 19:41:41 2014


Gurobi 5.6.3 (linux64) logging started Fri Aug  1 19:43:39 2014


Gurobi 5.6.3 (linux64) logging started Fri Aug  1 19:43:56 2014


Gurobi 5.6.3 (linux64) logging started Fri Aug  1 19:46:59 2014


Gurobi 5.6.3 (linux64) logging started Fri Aug  1 19:47:10 2014


Gurobi 5.6.3 (linux64) logging started Fri Aug  1 19:48:19 2014


Gurobi 5.6.3 (linux64) logging started Fri Aug  1 19:48:41 2014


Gurobi 5.6.3 (linux64) logging started Fri Aug  1 19:50:23 2014


Gurobi 5.6.3 (linux64) logging started Fri Aug  1 19:52:45 2014


Gurobi 5.6.3 (linux64) logging started Fri Aug  1 19:55:03 2014


Gurobi 5.6.3 (linux64) logging started Fri Aug  1 19:55:20 2014


Gurobi 5.6.3 (linux64) logging started Fri Aug  1 20:07:46 2014


Gurobi 5.6.3 (linux64) logging started Fri Aug  1 20:08:29 2014


Gurobi 5.6.3 (linux64) logging started Fri Aug  1 20:10:18 2014


Gurobi 5.6.3 (linux64) logging started Fri Aug  1 20:10:33 2014


Gurobi 5.6.3 (linux64) logging started Fri Aug  1 20:10:55 2014


Gurobi 5.6.3 (linux64) logging started Sat Aug  2 13:58:37 2014


Gurobi 5.6.3 (linux64) logging started Sat Aug  2 13:59:43 2014


Gurobi 5.6.3 (linux64) logging started Sat Aug  2 14:00:13 2014


Gurobi 5.6.3 (linux64) logging started Sat Aug  2 14:00:22 2014


Gurobi 5.6.3 (linux64) logging started Sat Aug  2 14:01:19 2014


Gurobi 5.6.3 (linux64) logging started Sat Aug  2 14:02:23 2014


Gurobi 5.6.3 (linux64) logging started Sat Aug  2 14:02:45 2014


Gurobi 5.6.3 (linux64) logging started Sat Aug  2 14:03:05 2014


Gurobi 5.6.3 (linux64) logging started Sat Aug  2 14:03:27 2014


Gurobi 5.6.3 (linux64) logging started Sat Aug  2 14:03:53 2014


Gurobi 5.6.3 (linux64) logging started Sat Aug  2 14:09:26 2014


Gurobi 5.6.3 (linux64) logging started Sat Aug  2 14:15:00 2014


Gurobi 5.6.3 (linux64) logging started Sat Aug  2 14:16:11 2014


Gurobi 5.6.3 (linux64) logging started Sat Aug  2 14:19:11 2014


Gurobi 5.6.3 (linux64) logging started Sat Aug  2 14:20:12 2014


Gurobi 5.6.3 (linux64) logging started Sat Aug  2 14:21:00 2014


Gurobi 5.6.3 (linux64) logging started Sat Aug  2 14:22:02 2014


Gurobi 5.6.3 (linux64) logging started Sat Aug  2 14:23:00 2014


Gurobi 5.6.3 (linux64) logging started Sat Aug  2 14:28:03 2014


Gurobi 5.6.3 (linux64) logging started Sat Aug  2 14:28:30 2014


Gurobi 5.6.3 (linux64) logging started Sat Aug  2 14:30:10 2014


Gurobi 5.6.3 (linux64) logging started Sat Aug  2 14:40:00 2014


Gurobi 5.6.3 (linux64) logging started Sat Aug  2 14:40:56 2014


Gurobi 5.6.3 (linux64) logging started Sat Aug  2 14:41:27 2014


Gurobi 5.6.3 (linux64) logging started Sat Aug  2 14:41:57 2014


Gurobi 5.6.3 (linux64) logging started Sat Aug  2 14:42:52 2014


Gurobi 5.6.3 (linux64) logging started Sat Aug  2 14:43:06 2014


Gurobi 5.6.3 (linux64) logging started Sat Aug  2 14:43:20 2014


Gurobi 5.6.3 (linux64) logging started Sat Aug  2 14:44:32 2014


Gurobi 5.6.3 (linux64) logging started Sat Aug  2 14:45:15 2014


Gurobi 5.6.3 (linux64) logging started Sat Aug  2 14:45:38 2014


Gurobi 5.6.3 (linux64) logging started Sat Aug  2 14:47:17 2014


Gurobi 5.6.3 (linux64) logging started Sat Aug  2 14:57:51 2014


Gurobi 5.6.3 (linux64) logging started Sat Aug  2 14:58:07 2014


Gurobi 5.6.3 (linux64) logging started Sat Aug  2 15:15:25 2014


Gurobi 5.6.3 (linux64) logging started Sat Aug  2 15:15:52 2014


Gurobi 5.6.3 (linux64) logging started Sat Aug  2 15:24:35 2014


Gurobi 5.6.3 (linux64) logging started Sat Aug  2 15:26:32 2014


Gurobi 5.6.3 (linux64) logging started Sat Aug  2 15:29:45 2014


Gurobi 5.6.3 (linux64) logging started Sat Aug  2 15:30:08 2014


Gurobi 5.6.3 (linux64) logging started Sat Aug  2 15:30:40 2014


Gurobi 5.6.3 (linux64) logging started Sat Aug  2 15:36:23 2014


Gurobi 5.6.3 (linux64) logging started Sat Aug  2 15:37:18 2014


Gurobi 5.6.3 (linux64) logging started Sat Aug  2 15:38:12 2014


Gurobi 5.6.3 (linux64) logging started Sat Aug  2 15:39:25 2014


Gurobi 5.6.3 (linux64) logging started Sat Aug  2 15:42:06 2014


Gurobi 5.6.3 (linux64) logging started Sat Aug  2 15:42:49 2014


Gurobi 5.6.3 (linux64) logging started Sat Aug  2 15:43:45 2014


Gurobi 5.6.3 (linux64) logging started Sat Aug  2 15:45:40 2014


Gurobi 5.6.3 (linux64) logging started Sat Aug  2 15:47:23 2014


Gurobi 5.6.3 (linux64) logging started Sat Aug  2 15:56:59 2014


Gurobi 5.6.3 (linux64) logging started Sat Aug  2 15:57:28 2014


Gurobi 5.6.3 (linux64) logging started Sat Aug  2 15:58:03 2014


Gurobi 5.6.3 (linux64) logging started Sat Aug  2 15:58:29 2014


Gurobi 5.6.3 (linux64) logging started Sat Aug  2 16:00:01 2014


Gurobi 5.6.3 (linux64) logging started Sat Aug  2 16:00:43 2014


Gurobi 5.6.3 (linux64) logging started Sat Aug  2 16:07:58 2014


Gurobi 5.6.3 (linux64) logging started Sat Aug  2 16:10:38 2014


Gurobi 5.6.3 (linux64) logging started Sat Aug  2 16:23:33 2014


Gurobi 5.6.3 (linux64) logging started Sat Aug  2 16:31:55 2014


Gurobi 5.6.3 (linux64) logging started Sat Aug  2 16:32:41 2014


Gurobi 5.6.3 (linux64) logging started Sat Aug  2 16:33:57 2014


Gurobi 5.6.3 (linux64) logging started Sat Aug  2 16:46:13 2014


Gurobi 5.6.3 (linux64) logging started Sat Aug  2 16:46:24 2014


Gurobi 5.6.3 (linux64) logging started Sat Aug  2 16:46:43 2014


Gurobi 5.6.3 (linux64) logging started Sat Aug  2 16:47:11 2014


Gurobi 5.6.3 (linux64) logging started Sat Aug  2 16:47:38 2014


Gurobi 5.6.3 (linux64) logging started Sat Aug  2 16:48:03 2014


Gurobi 5.6.3 (linux64) logging started Sat Aug  2 16:50:00 2014


Gurobi 5.6.3 (linux64) logging started Sat Aug  2 16:50:40 2014


Gurobi 5.6.3 (linux64) logging started Sat Aug  2 16:51:12 2014


Gurobi 5.6.3 (linux64) logging started Sat Aug  2 16:51:36 2014


Gurobi 5.6.3 (linux64) logging started Sat Aug  2 16:52:05 2014


Gurobi 5.6.3 (linux64) logging started Sat Aug  2 16:52:33 2014


Gurobi 5.6.3 (linux64) logging started Sat Aug  2 16:53:27 2014


Gurobi 5.6.3 (linux64) logging started Sat Aug  2 16:55:00 2014


Gurobi 5.6.3 (linux64) logging started Sat Aug  2 16:56:01 2014


Gurobi 5.6.3 (linux64) logging started Sat Aug  2 16:56:49 2014


Gurobi 5.6.3 (linux64) logging started Sat Aug  2 17:01:13 2014


Gurobi 5.6.3 (linux64) logging started Sat Aug  2 17:03:16 2014


Gurobi 5.6.3 (linux64) logging started Sat Aug  2 17:03:30 2014


Gurobi 5.6.3 (linux64) logging started Sat Aug  2 17:03:39 2014


Gurobi 5.6.3 (linux64) logging started Sat Aug  2 17:04:04 2014


Gurobi 5.6.3 (linux64) logging started Sat Aug  2 17:04:32 2014


Gurobi 5.6.3 (linux64) logging started Sat Aug  2 17:04:54 2014


Gurobi 5.6.3 (linux64) logging started Sat Aug  2 17:05:20 2014


Gurobi 5.6.3 (linux64) logging started Sat Aug  2 17:05:48 2014


Gurobi 5.6.3 (linux64) logging started Sat Aug  2 17:06:21 2014


Gurobi 5.6.3 (linux64) logging started Sat Aug  2 17:06:41 2014


Gurobi 5.6.3 (linux64) logging started Sat Aug  2 17:07:05 2014


Gurobi 5.6.3 (linux64) logging started Sat Aug  2 17:07:36 2014


Gurobi 5.6.3 (linux64) logging started Sat Aug  2 17:08:05 2014


Gurobi 5.6.3 (linux64) logging started Sat Aug  2 17:08:34 2014


Gurobi 5.6.3 (linux64) logging started Sat Aug  2 17:08:54 2014


Gurobi 5.6.3 (linux64) logging started Sat Aug  2 17:09:29 2014


Gurobi 5.6.3 (linux64) logging started Sat Aug  2 17:12:01 2014


Gurobi 5.6.3 (linux64) logging started Sat Aug  2 17:12:13 2014


Gurobi 5.6.3 (linux64) logging started Sat Aug  2 17:13:15 2014


Gurobi 5.6.3 (linux64) logging started Sat Aug  2 17:13:35 2014


Gurobi 5.6.3 (linux64) logging started Sat Aug  2 17:14:13 2014


Gurobi 5.6.3 (linux64) logging started Sat Aug  2 17:15:01 2014


Gurobi 5.6.3 (linux64) logging started Sat Aug  2 17:15:42 2014


Gurobi 5.6.3 (linux64) logging started Sat Aug  2 17:16:07 2014


Gurobi 5.6.3 (linux64) logging started Sat Aug  2 17:33:09 2014


Gurobi 5.6.3 (linux64) logging started Sat Aug  2 17:34:01 2014


Gurobi 5.6.3 (linux64) logging started Sat Aug  2 17:34:27 2014


Gurobi 5.6.3 (linux64) logging started Sat Aug  2 17:35:49 2014


Gurobi 5.6.3 (linux64) logging started Sat Aug  2 17:36:16 2014


Gurobi 5.6.3 (linux64) logging started Sat Aug  2 17:36:41 2014


Gurobi 5.6.3 (linux64) logging started Sat Aug  2 17:37:11 2014


Gurobi 5.6.3 (linux64) logging started Sat Aug  2 17:37:36 2014


Gurobi 5.6.3 (linux64) logging started Sun Aug  3 16:45:57 2014


Gurobi 5.6.3 (linux64) logging started Sun Aug  3 16:46:53 2014


Gurobi 5.6.3 (linux64) logging started Sun Aug  3 16:47:15 2014


Gurobi 5.6.3 (linux64) logging started Sun Aug  3 16:47:42 2014


Gurobi 5.6.3 (linux64) logging started Sun Aug  3 16:48:58 2014


Gurobi 5.6.3 (linux64) logging started Sun Aug  3 16:50:21 2014


Gurobi 5.6.3 (linux64) logging started Sun Aug  3 16:51:02 2014


Gurobi 5.6.3 (linux64) logging started Sun Aug  3 16:51:21 2014


Gurobi 5.6.3 (linux64) logging started Sun Aug  3 16:51:46 2014


Gurobi 5.6.3 (linux64) logging started Sun Aug  3 16:52:12 2014


Gurobi 5.6.3 (linux64) logging started Sun Aug  3 16:52:24 2014


Gurobi 5.6.3 (linux64) logging started Sun Aug  3 16:52:42 2014


Gurobi 5.6.3 (linux64) logging started Sun Aug  3 16:53:13 2014


Gurobi 5.6.3 (linux64) logging started Sun Aug  3 16:53:38 2014


Gurobi 5.6.3 (linux64) logging started Sun Aug  3 16:53:56 2014


Gurobi 5.6.3 (linux64) logging started Sun Aug  3 16:54:39 2014


Gurobi 5.6.3 (linux64) logging started Sun Aug  3 16:55:04 2014


Gurobi 5.6.3 (linux64) logging started Sun Aug  3 16:57:54 2014


Gurobi 5.6.3 (linux64) logging started Sun Aug  3 16:59:30 2014


Gurobi 5.6.3 (linux64) logging started Sun Aug  3 17:00:04 2014


Gurobi 5.6.3 (linux64) logging started Sun Aug  3 17:01:31 2014


Gurobi 5.6.3 (linux64) logging started Sun Aug  3 17:12:39 2014


Gurobi 5.6.3 (linux64) logging started Sun Aug  3 17:39:59 2014


Gurobi 5.6.3 (linux64) logging started Sun Aug  3 17:42:03 2014


Gurobi 5.6.3 (linux64) logging started Sun Aug  3 17:42:31 2014


Gurobi 5.6.3 (linux64) logging started Sun Aug  3 17:46:00 2014


Gurobi 5.6.3 (linux64) logging started Sun Aug  3 18:09:24 2014


Gurobi 5.6.3 (linux64) logging started Sun Aug  3 18:09:33 2014


Gurobi 5.6.3 (linux64) logging started Sun Aug  3 18:11:19 2014


Gurobi 5.6.3 (linux64) logging started Sun Aug  3 18:11:49 2014


Gurobi 5.6.3 (linux64) logging started Sun Aug  3 18:12:17 2014


Gurobi 5.6.3 (linux64) logging started Sun Aug  3 18:12:54 2014


Gurobi 5.6.3 (linux64) logging started Sun Aug  3 18:13:20 2014


Gurobi 5.6.3 (linux64) logging started Sun Aug  3 18:13:45 2014


Gurobi 5.6.3 (linux64) logging started Sun Aug  3 18:14:45 2014


Gurobi 5.6.3 (linux64) logging started Sun Aug  3 18:15:11 2014


Gurobi 5.6.3 (linux64) logging started Sun Aug  3 18:15:42 2014


Gurobi 5.6.3 (linux64) logging started Sun Aug  3 18:16:08 2014


Gurobi 5.6.3 (linux64) logging started Sun Aug  3 18:16:41 2014


Gurobi 5.6.3 (linux64) logging started Sun Aug  3 18:16:58 2014


Gurobi 5.6.3 (linux64) logging started Sun Aug  3 18:20:52 2014


Gurobi 5.6.3 (linux64) logging started Sun Aug  3 18:21:37 2014


Gurobi 5.6.3 (linux64) logging started Sun Aug  3 18:22:22 2014


Gurobi 5.6.3 (linux64) logging started Sun Aug  3 18:22:47 2014


Gurobi 5.6.3 (linux64) logging started Sun Aug  3 18:23:50 2014


Gurobi 5.6.3 (linux64) logging started Sun Aug  3 18:36:15 2014


Gurobi 5.6.3 (linux64) logging started Mon Aug  4 12:52:53 2014


Gurobi 5.6.3 (linux64) logging started Mon Aug  4 12:53:30 2014


Gurobi 5.6.3 (linux64) logging started Mon Aug  4 12:54:42 2014


Gurobi 5.6.3 (linux64) logging started Mon Aug  4 12:55:52 2014


Gurobi 5.6.3 (linux64) logging started Mon Aug  4 13:05:07 2014


Gurobi 5.6.3 (linux64) logging started Mon Aug  4 13:06:58 2014


Gurobi 5.6.3 (linux64) logging started Mon Aug  4 13:08:25 2014


Gurobi 5.6.3 (linux64) logging started Mon Aug  4 13:08:53 2014


Gurobi 5.6.3 (linux64) logging started Mon Aug  4 13:08:58 2014


Gurobi 5.6.3 (linux64) logging started Mon Aug  4 13:10:34 2014


Gurobi 5.6.3 (linux64) logging started Mon Aug  4 13:11:21 2014


Gurobi 5.6.3 (linux64) logging started Mon Aug  4 13:23:18 2014


Gurobi 5.6.3 (linux64) logging started Mon Aug  4 13:23:56 2014


Gurobi 5.6.3 (linux64) logging started Mon Aug  4 13:24:36 2014


Gurobi 5.6.3 (linux64) logging started Mon Aug  4 13:33:00 2014


Gurobi 5.6.3 (linux64) logging started Mon Aug  4 13:33:08 2014


Gurobi 5.6.3 (linux64) logging started Mon Aug  4 13:34:17 2014


Gurobi 5.6.3 (linux64) logging started Mon Aug  4 13:38:46 2014


Gurobi 5.6.3 (linux64) logging started Mon Aug  4 13:39:07 2014


Gurobi 5.6.3 (linux64) logging started Mon Aug  4 13:40:44 2014


Gurobi 5.6.3 (linux64) logging started Mon Aug  4 16:05:22 2014


Gurobi 5.6.3 (linux64) logging started Mon Aug  4 16:08:43 2014


Gurobi 5.6.3 (linux64) logging started Mon Aug  4 16:10:15 2014


Gurobi 5.6.3 (linux64) logging started Mon Aug  4 16:10:33 2014


Gurobi 5.6.3 (linux64) logging started Mon Aug  4 16:14:39 2014


Gurobi 5.6.3 (linux64) logging started Mon Aug  4 16:15:14 2014


Gurobi 5.6.3 (linux64) logging started Mon Aug  4 16:17:06 2014


Gurobi 5.6.3 (linux64) logging started Mon Aug  4 16:18:27 2014


Gurobi 5.6.3 (linux64) logging started Mon Aug  4 16:19:16 2014


Gurobi 5.6.3 (linux64) logging started Mon Aug  4 16:21:49 2014


Gurobi 5.6.3 (linux64) logging started Mon Aug  4 16:28:12 2014


Gurobi 5.6.3 (linux64) logging started Mon Aug  4 16:28:59 2014


Gurobi 5.6.3 (linux64) logging started Mon Aug  4 16:34:47 2014


Gurobi 5.6.3 (linux64) logging started Mon Aug  4 16:47:49 2014


Gurobi 5.6.3 (linux64) logging started Mon Aug  4 16:48:10 2014


Gurobi 5.6.3 (linux64) logging started Mon Aug  4 16:48:43 2014


Gurobi 5.6.3 (linux64) logging started Mon Aug  4 16:49:53 2014


Gurobi 5.6.3 (linux64) logging started Mon Aug  4 16:50:25 2014


Gurobi 5.6.3 (linux64) logging started Mon Aug  4 16:50:37 2014


Gurobi 5.6.3 (linux64) logging started Mon Aug  4 16:52:45 2014


Gurobi 5.6.3 (linux64) logging started Mon Aug  4 16:54:13 2014


Gurobi 5.6.3 (linux64) logging started Mon Aug  4 16:59:47 2014


Gurobi 5.6.3 (linux64) logging started Mon Aug  4 17:03:11 2014


Gurobi 5.6.3 (linux64) logging started Mon Aug  4 17:13:32 2014


Gurobi 5.6.3 (linux64) logging started Mon Aug  4 17:15:04 2014


Gurobi 5.6.3 (linux64) logging started Mon Aug  4 17:24:19 2014


Gurobi 5.6.3 (linux64) logging started Mon Aug  4 17:29:04 2014


Gurobi 5.6.3 (linux64) logging started Mon Aug  4 17:30:40 2014


Gurobi 5.6.3 (linux64) logging started Mon Aug  4 17:31:21 2014


Gurobi 5.6.3 (linux64) logging started Mon Aug  4 17:41:13 2014


Gurobi 5.6.3 (linux64) logging started Mon Aug  4 17:44:35 2014


Gurobi 5.6.3 (linux64) logging started Mon Aug  4 17:45:16 2014


Gurobi 5.6.3 (linux64) logging started Mon Aug  4 17:45:59 2014


Gurobi 5.6.3 (linux64) logging started Mon Aug  4 17:47:07 2014


Gurobi 5.6.3 (linux64) logging started Mon Aug  4 17:51:30 2014


Gurobi 5.6.3 (linux64) logging started Mon Aug  4 17:52:53 2014


Gurobi 5.6.3 (linux64) logging started Mon Aug  4 17:53:07 2014


Gurobi 5.6.3 (linux64) logging started Mon Aug  4 17:53:40 2014


Gurobi 5.6.3 (linux64) logging started Mon Aug  4 17:54:23 2014


Gurobi 5.6.3 (linux64) logging started Mon Aug  4 17:55:48 2014


Gurobi 5.6.3 (linux64) logging started Mon Aug  4 17:59:39 2014


Gurobi 5.6.3 (linux64) logging started Mon Aug  4 18:00:25 2014


Gurobi 5.6.3 (linux64) logging started Mon Aug  4 18:34:11 2014


Gurobi 5.6.3 (linux64) logging started Mon Aug  4 18:35:17 2014


Gurobi 5.6.3 (linux64) logging started Mon Aug  4 18:37:03 2014


Gurobi 5.6.3 (linux64) logging started Mon Aug  4 19:22:49 2014


Gurobi 5.6.3 (linux64) logging started Mon Aug  4 19:24:21 2014


Gurobi 5.6.3 (linux64) logging started Mon Aug  4 19:29:22 2014


Gurobi 5.6.3 (linux64) logging started Mon Aug  4 19:31:07 2014


Gurobi 5.6.3 (linux64) logging started Mon Aug  4 19:31:40 2014


Gurobi 5.6.3 (linux64) logging started Mon Aug  4 19:34:01 2014


Gurobi 5.6.3 (linux64) logging started Mon Aug  4 19:37:49 2014


Gurobi 5.6.3 (linux64) logging started Mon Aug  4 19:38:37 2014


Gurobi 5.6.3 (linux64) logging started Mon Aug  4 19:44:12 2014


Gurobi 5.6.3 (linux64) logging started Mon Aug  4 19:45:58 2014


Gurobi 5.6.3 (linux64) logging started Mon Aug  4 19:46:27 2014


Gurobi 5.6.3 (linux64) logging started Mon Aug  4 19:47:17 2014


Gurobi 5.6.3 (linux64) logging started Mon Aug  4 19:48:13 2014


Gurobi 5.6.3 (linux64) logging started Mon Aug  4 19:49:39 2014


Gurobi 5.6.3 (linux64) logging started Mon Aug  4 19:50:00 2014


Gurobi 5.6.3 (linux64) logging started Mon Aug  4 19:52:10 2014


Gurobi 5.6.3 (linux64) logging started Tue Aug  5 10:55:03 2014


Gurobi 5.6.3 (linux64) logging started Tue Aug  5 10:57:04 2014


Gurobi 5.6.3 (linux64) logging started Tue Aug  5 10:57:55 2014


Gurobi 5.6.3 (linux64) logging started Tue Aug  5 10:58:47 2014


Gurobi 5.6.3 (linux64) logging started Tue Aug  5 10:59:35 2014


Gurobi 5.6.3 (linux64) logging started Tue Aug  5 10:59:58 2014


Gurobi 5.6.3 (linux64) logging started Tue Aug  5 11:00:52 2014


Gurobi 5.6.3 (linux64) logging started Tue Aug  5 11:01:34 2014


Gurobi 5.6.3 (linux64) logging started Tue Aug  5 11:01:45 2014


Gurobi 5.6.3 (linux64) logging started Tue Aug  5 11:02:57 2014


Gurobi 5.6.3 (linux64) logging started Tue Aug  5 11:03:39 2014


Gurobi 5.6.3 (linux64) logging started Tue Aug  5 11:03:55 2014


Gurobi 5.6.3 (linux64) logging started Tue Aug  5 11:04:29 2014


Gurobi 5.6.3 (linux64) logging started Tue Aug  5 11:05:01 2014


Gurobi 5.6.3 (linux64) logging started Tue Aug  5 11:07:19 2014


Gurobi 5.6.3 (linux64) logging started Tue Aug  5 11:07:53 2014


Gurobi 5.6.3 (linux64) logging started Tue Aug  5 11:08:26 2014


Gurobi 5.6.3 (linux64) logging started Tue Aug  5 11:09:09 2014


Gurobi 5.6.3 (linux64) logging started Tue Aug  5 11:09:31 2014


Gurobi 5.6.3 (linux64) logging started Tue Aug  5 11:09:57 2014


Gurobi 5.6.3 (linux64) logging started Tue Aug  5 11:10:27 2014


Gurobi 5.6.3 (linux64) logging started Tue Aug  5 11:11:04 2014


Gurobi 5.6.3 (linux64) logging started Tue Aug  5 11:12:17 2014


Gurobi 5.6.3 (linux64) logging started Tue Aug  5 11:12:57 2014


Gurobi 5.6.3 (linux64) logging started Tue Aug  5 11:13:12 2014


Gurobi 5.6.3 (linux64) logging started Tue Aug  5 11:16:28 2014


Gurobi 5.6.3 (linux64) logging started Tue Aug  5 11:17:58 2014


Gurobi 5.6.3 (linux64) logging started Tue Aug  5 11:21:15 2014


Gurobi 5.6.3 (linux64) logging started Tue Aug  5 11:22:08 2014


Gurobi 5.6.3 (linux64) logging started Tue Aug  5 11:22:28 2014


Gurobi 5.6.3 (linux64) logging started Tue Aug  5 11:23:08 2014


Gurobi 5.6.3 (linux64) logging started Tue Aug  5 11:23:40 2014


Gurobi 5.6.3 (linux64) logging started Tue Aug  5 11:24:09 2014


Gurobi 5.6.3 (linux64) logging started Tue Aug  5 11:24:33 2014


Gurobi 5.6.3 (linux64) logging started Tue Aug  5 11:25:02 2014


Gurobi 5.6.3 (linux64) logging started Tue Aug  5 11:25:17 2014


Gurobi 5.6.3 (linux64) logging started Tue Aug  5 11:25:38 2014


Gurobi 5.6.3 (linux64) logging started Tue Aug  5 11:26:07 2014


Gurobi 5.6.3 (linux64) logging started Tue Aug  5 11:26:45 2014


Gurobi 5.6.3 (linux64) logging started Tue Aug  5 11:27:13 2014


Gurobi 5.6.3 (linux64) logging started Tue Aug  5 11:29:09 2014


Gurobi 5.6.3 (linux64) logging started Tue Aug  5 11:29:44 2014


Gurobi 5.6.3 (linux64) logging started Tue Aug  5 11:30:19 2014


Gurobi 5.6.3 (linux64) logging started Tue Aug  5 11:30:56 2014

